43 39 50 8 52 19 37 28 4 35 74 32 26 40 90 20 5 11 55 44 85 56 61 46 72 66 16 51 14 99 54 77 21 88 92 70 82 73 27 93 67 17 87 83 84 71 2 58 59 36 65 78 31 33 64 34 96 29 81 76 79 18 10 15 42 95 75 38 91 13 47 69 89 0 98 60 63 23 49 22 62 86 25 3 53 41 1 68 12 45 94 48 97 24 6 30 9 80 7 57